CPLEX/AMMM/project.9.sol
OBJECTIVE: 0.68
f(1) = 9
f(2) = 8
f(3) = 2
f(4) = 10
